File : Instances/p60
Used 66s
23310

0 0 1 0 1 0 1 0 1 0 0 0 1 1 0 0 1 0 0 0 1 0 1 0 0 1 0 1 1 0 
27 6 2 27 2 12 16 27 22 28 4 28 13 13 28 25 13 20 22 27 27 16 2 27 20 27 27 28 4 2 6 4 4 16 27 6 20 8 16 16 25 8 6 4 8 4 13 16 28 20 27 16 16 16 8 12 25 8 22 25 4 27 25 8 8 25 13 20 28 25 22 12 6 8 13 13 20 20 8 16 13 28 8 25 4 13 6 2 27 25 28 6 25 25 2 13 28 6 2 28 28 16 25 25 4 2 4 16 22 13 6 4 27 12 12 8 28 25 28 8 8 25 28 6 4 16 2 12 4 28 28 16 12 20 13 8 13 13 28 20 12 22 12 25 25 2 16 16 27 25 27 20 13 28 8 28 2 16 8 13 13 27 20 2 2 27 2 4 13 2 13 20 28 20 4 2 27 20 4 20 2 16 2 6 12 8 28 13 27 16 2 2 6 4 25 12 25 2 20 6 
